SAT
-87 -99 10 -48 -12 60 -5 -62 51 66 27 64 -32 -26 -59 34 88 -61 -77 84 95 29 -55 33 63 -17 -28 -3 16 -86 74 22 81 1 -41 -43 -9 -44 75 -11 -8 -31 -96 -83 39 97 -79 89 93 7 54 -94 -82 -73 42 -19 -37 -69 -65 14 85 25 -36 -58 49 68 20 -13 -70 -38 4 -53 -92 -98 -30 -50 -72 46 45 57 -24 -76 -100 80 47 67 -78 -90 71 2 91 -56 40 23 6 15 -21 52 -18 -35 0
